maximize
OBJ:100x0 + 100x1 + 100x2 + 100x3 + 100x4 + 100x5 + 100x6 + 100x7 + 100x8 + 100x9 + 100x10 + 100x11 + 100x12 + 100x13 + 100x14 + 100x15 + 100x16 + 100x17 + 100x18 + 100x19 + 100x20 + 100x21 + 100x22 + 100x23 + 100x24 + 100x25 + 100x26 + 100x27 + 100x28 + 100x29 + 100x30 + 100x31 + 100x32 + 100x33 + 100x34 + 100x35 + 100x36 + 100x37 + 100x38 + 100x39 + 100x40 + 100x41 + 100x42 + 100x43 + 100x44 + 100x45 + 100x46 + 100x47 + 100x48 + 100x49 + 100x50 + 100x51 + 100x52 + 100x53 + 100x54 + 100x55 + 100x56 + 100x57 + 100x58 + 100x59 + 100x60 + 100x61 + 100x62 + 100x63 + 100x64 + 100x65 + 100x66 - y15_30 - y55_66 - y47_62 - y26_39 - y7_35 - y29_32 - y18_44 - y29_41 - y0_14 - y48_63 - y0_23 - y40_59 - y10_27 - y10_36 - y33_47 - y25_43 - y3_6 - y2_50 - y25_52 - y51_64 - y32_60 - y3_33 - y14_33 - y24_65 - y15_16 - y7_12 - y17_44 - y47_57 - y17_53 - y18_30 - y36_66 - y47_66 - y48_49 - y29_45 - y21_41 - y29_63 - y10_22 - y10_31 - y2_27 - y10_49 - y3_10 - y51_59 - y43_55 - y22_32 - y35_60 - y16_56 - y36_43 - y17_39 - y7_16 - y36_52 - y17_48 - y59_63 - y9_53 - y17_66 - y6_29 - y28_66 - y9_62 - y21_27 - y29_40 - y21_36 - y6_47 - y40_49 - y21_45 - y10_17 - y2_13 - y10_26 - y2_22 - y54_60 - y10_35 - y25_33 - y25_42 - y3_14 - y13_46 - y14_23 - y43_59 - y1_53 - y16_51 - y17_25 - y36_38 - y28_34 - y7_11 - y9_30 - y36_47 - y9_39 - y28_52 - y6_15 - y5_59 - y6_24 - y28_61 - y9_57 - y21_22 - y29_35 - y9_66 - y6_42 - y40_44 - y21_40 - y6_51 - y39_48 - y20_53 - y54_55 - y54_64 - y32_36 - y24_41 - y35_41 - y24_50 - y16_46 - y1_57 - y17_20 - y28_38 - y9_34 - y28_47 - y6_10 - y9_43 - y5_63 - y6_28 - y58_66 - y6_46 - y20_39 - y10_25 - y20_57 - y12_53 - y20_66 - y13_27 - y1_34 - y13_36 - y24_36 - y16_32 - y32_49 - y13_45 - y43_58 - y1_52 - y24_54 - y24_63 - y46_60 - y9_20 - y17_33 - y9_29 - y49_65 - y5_40 - y17_42 - y28_42 - y5_49 - y9_47 - y5_58 - y58_61 - y27_55 - y6_32 - y42_53 - y8_60 - y19_60 - y0_56 - y0_65 - y11_65 - y39_65 - y23_48 - y54_63 - y13_22 - y43_44 - y16_27 - y1_47 - y35_58 - y38_51 - y49_51 - y5_26 - y57_64 - y49_60 - y28_37 - y5_44 - y6_9 - y27_41 - y50_52 - y58_65 - y19_46 - y30_46 - y42_48 - y50_61 - y42_57 - y11_51 - y42_66 - y0_60 - y11_60 - y12_25 - y20_38 - y31_38 - y39_42 - y12_34 - y4_30 - y23_43 - y13_17 - y31_65 - y1_24 - y24_26 - y16_22 - y16_31 - y1_42 - y13_44 - y35_44 - y1_51 - y9_19 - y15_53 - y5_30 - y26_53 - y38_55 - y15_62 - y38_64 - y5_39 - y7_58 - y27_36 - y8_32 - y19_32 - y0_46 - y11_46 - y19_59 - y0_55 - y20_33 - y31_33 - y11_64 - y12_29 - y23_29 - y23_47 - y1_10 - y53_57 - y1_28 - y4_61 - y45_62 - y56_62 - y37_58 - y1_46 - y14_65 - y5_7 - y5_16 - y46_54 - y38_50 - y46_63 - y57_63 - y15_57 - y26_66 - y19_27 - y27_40 - y30_36 - y19_45 - y19_54 - y30_54 - y60_64 - y12_24 - y4_29 - y4_38 - y1_14 - y13_16 - y45_48 - y37_44 - y56_57 - y1_32 - y3_51 - y37_53 - y34_66 - y56_66 - y46_58 - y18_48 - y38_63 - y19_22 - y18_66 - y8_31 - y19_31 - y11_27 - y63_65 - y19_40 - y27_53 - y11_36 - y8_49 - y0_45 - y20_23 - y12_19 - y20_32 - y31_32 - y4_24 - y4_33 - y22_59 - y56_61 - y3_64 - y26_29 - y18_25 - y26_38 - y38_49 - y7_43 - y18_43 - y18_52 - y11_13 - y18_61 - y8_26 - y19_35 - y30_44 - y0_40 - y11_40 - y60_63 - y4_10 - y33_46 - y12_23 - y4_19 - y10_53 - y33_55 - y4_28 - y10_62 - y44_64 - y25_60 - y22_36 - y3_32 - y34_47 - y3_41 - y45_56 - y15_24 - y18_29 - y8_12 - y0_8 - y7_56 - y8_21 - y19_21 - y48_57 - y29_53 - y8_30 - y6_60 - y40_62 - y21_58 - y0_35 - y11_35 - y41_54 - y41_63 - y14_56 - y14_27 - y3_36 - y34_51 - y45_51 - y26_28 - y55_64 - y18_24 - y36_60 - y7_33 - y18_33 - y28_65 - y29_39 - y48_52 - y11_12 - y29_48 - y19_25 - y21_62 - y41_58 - y52_58 - y33_54 - y44_54 - y2_48 - y33_63 - y44_63 - y2_57 - y3_22 - y22_35 - y34_37 - y2_66 - y22_44 - y14_40 - y7_10 - y15_23 - y18_28 - y59_66 - y18_37 - y8_11 - y29_43 - y40_43 - y21_39 - y11_16 - y29_52 - y10_38 - y25_36 - y10_47 - y2_43 - y25_45 - y51_57 - y3_17 - y14_17 - y32_53 - y51_66 - y3_26 - y14_26 - y32_62 - y13_58 - y43_62 - y14_35 - y3_44 - y15_18 - y47_50 - y17_46 - y7_23 - y9_42 - y36_59 - y5_53 - y17_55 - y5_62 - y0_2 - y48_51 - y21_34 - y6_45 - y29_56 - y40_56 - y10_15 - y54_58 - y10_33 - y20_65 - y2_47 - y3_12 - y51_61 - y2_56 - y14_21 - y24_53 - y24_62 - y17_32 - y28_32 - y7_9 - y9_37 - y5_48 - y28_50 - y5_57 - y28_59 - y58_60 - y9_64 - y2_15 - y39_64 - y20_60 - y12_65 - y35_39 - y3_16 - y14_16 - y24_48 - y35_48 - y1_55 - y16_53 - y24_66 - y35_66 - y17_27 - y5_34 - y17_36 - y9_41 - y9_50 - y58_64 - y21_24 - y12_51 - y20_64 - y12_60 - y13_25 - y2_37 - y3_11 - y4_65 - y13_43 - y16_39 - y32_65 - y16_48 - y1_59 - y13_61 - y36_44 - y5_38 - y9_36 - y28_49 - y6_12 - y50_55 - y42_51 - y42_60 - y0_63 - y2_5 - y31_41 - y2_23 - y54_61 - y12_55 - y12_64 - y23_64 - y24_29 - y43_51 - y1_45 - y35_47 - y24_56 - y9_13 - y16_61 - y9_22 - y38_58 - y17_35 - y5_51 - y6_16 - y27_48 - y6_25 - y8_53 - y19_53 - y30_62 - y42_64 - y0_58 - y11_58 - y39_40 - y20_36 - y31_36 - y12_32 - y20_45 - y23_41 - y31_54 - y54_56 - y12_50 - y1_22 - y32_37 - y34_65 - y1_40 - y13_42 - y16_38 - y35_51 - y46_48 - y38_44 - y5_19 - y49_53 - y17_30 - y46_66 - y9_26 - y27_43 - y30_39 - y19_48 - y30_48 - y50_63 - y0_44 - y0_53 - y19_66 - y30_66 - y0_62 - y11_62 - y39_44 - y4_23 - y39_53 - y20_49 - y13_19 - y4_50 - y45_60 - y15_46 - y57_61 - y15_55 - y49_57 - y19_34 - y0_30 - y0_39 - y11_39 - y19_52 - y12_13 - y8_61 - y19_61 - y20_35 - y31_35 - y0_66 - y12_31 - y23_31 - y4_27 - y45_46 - y13_23 - y34_55 - y37_51 - y16_28 - y34_64 - y3_58 - y15_41 - y46_56 - y9_16 - y26_50 - y46_65 - y18_46 - y38_61 - y7_55 - y27_33 - y8_29 - y19_29 - y0_25 - y11_25 - y8_38 - y27_51 - y8_47 - y19_47 - y11_43 - y12_17 - y4_13 - y0_61 - y11_61 - y23_26 - y52_62 - y44_58 - y12_35 - y37_46 - y56_59 - y3_53 - y14_53 - y3_62 - y15_27 - y15_36 - y26_36 - y15_54 - y26_54 - y15_63 - y26_63 - y27_28 - y7_59 - y11_20 - y40_65 - y11_47 - y60_61 - y4_17 - y12_30 - y10_60 - y22_43 - y53_58 - y22_52 - y14_48 - y34_63 - y14_57 - y15_22 - y7_18 - y7_27 - y15_49 - y7_45 - y18_54 - y8_19 - y48_55 - y27_32 - y0_15 - y8_28 - y0_33 - y33_48 - y10_55 - y1_6 - y2_60 - y22_38 - y3_34 - y14_34 - y45_49 - y22_56 - y45_58 - y56_58 - y7_40 - y48_59 - y0_19 - y6_53 - y21_51 - y6_62 - y63_66 - y25_30 - y10_41 - y41_56 - y33_52 - y41_65 - y25_48 - y25_57 - y14_20 - y34_35 - y2_64 - y14_29 - y22_42 - y34_44 - y37_49 - y3_56
 Subject to
C1: x0+x1 <=1 
C2: x0+x2-y0_2 <=1 
C3: x0+x4 <=1 
C4: x0+x5 <=1 
C5: x0+x7 <=1 
C6: x0+x8-y0_8 <=1 
C7: x0+x10 <=1 
C8: x0+x12 <=1 
C9: x0+x14-y0_14 <=1 
C10: x0+x15-y0_15 <=1 
C11: x0+x19-y0_19 <=1 
C12: x0+x20 <=1 
C13: x0+x23-y0_23 <=1 
C14: x0+x25-y0_25 <=1 
C15: x0+x30-y0_30 <=1 
C16: x0+x31 <=1 
C17: x0+x33-y0_33 <=1 
C18: x0+x35-y0_35 <=1 
C19: x0+x38 <=1 
C20: x0+x39-y0_39 <=1 
C21: x0+x40-y0_40 <=1 
C22: x0+x41 <=1 
C23: x0+x43 <=1 
C24: x0+x44-y0_44 <=1 
C25: x0+x45-y0_45 <=1 
C26: x0+x46-y0_46 <=1 
C27: x0+x48 <=1 
C28: x0+x49 <=1 
C29: x0+x50 <=1 
C30: x0+x53-y0_53 <=1 
C31: x0+x55-y0_55 <=1 
C32: x0+x56-y0_56 <=1 
C33: x0+x58-y0_58 <=1 
C34: x0+x59 <=1 
C35: x0+x60-y0_60 <=1 
C36: x0+x61-y0_61 <=1 
C37: x0+x62-y0_62 <=1 
C38: x0+x63-y0_63 <=1 
C39: x0+x65-y0_65 <=1 
C40: x0+x66-y0_66 <=1 
C41: x1+x6-y1_6 <=1 
C42: x1+x8 <=1 
C43: x1+x9 <=1 
C44: x1+x10-y1_10 <=1 
C45: x1+x11 <=1 
C46: x1+x12 <=1 
C47: x1+x13 <=1 
C48: x1+x14-y1_14 <=1 
C49: x1+x15 <=1 
C50: x1+x16 <=1 
C51: x1+x17 <=1 
C52: x1+x18 <=1 
C53: x1+x20 <=1 
C54: x1+x22-y1_22 <=1 
C55: x1+x24-y1_24 <=1 
C56: x1+x25 <=1 
C57: x1+x26 <=1 
C58: x1+x27 <=1 
C59: x1+x28-y1_28 <=1 
C60: x1+x29 <=1 
C61: x1+x30 <=1 
C62: x1+x31 <=1 
C63: x1+x32-y1_32 <=1 
C64: x1+x34-y1_34 <=1 
C65: x1+x36 <=1 
C66: x1+x37 <=1 
C67: x1+x38 <=1 
C68: x1+x39 <=1 
C69: x1+x40-y1_40 <=1 
C70: x1+x42-y1_42 <=1 
C71: x1+x45-y1_45 <=1 
C72: x1+x46-y1_46 <=1 
C73: x1+x47-y1_47 <=1 
C74: x1+x49 <=1 
C75: x1+x50 <=1 
C76: x1+x51-y1_51 <=1 
C77: x1+x52-y1_52 <=1 
C78: x1+x53-y1_53 <=1 
C79: x1+x55-y1_55 <=1 
C80: x1+x56 <=1 
C81: x1+x57-y1_57 <=1 
C82: x1+x59-y1_59 <=1 
C83: x1+x62 <=1 
C84: x1+x63 <=1 
C85: x1+x66 <=1 
C86: x2+x3 <=1 
C87: x2+x4 <=1 
C88: x2+x5-y2_5 <=1 
C89: x2+x8 <=1 
C90: x2+x10 <=1 
C91: x2+x13-y2_13 <=1 
C92: x2+x15-y2_15 <=1 
C93: x2+x16 <=1 
C94: x2+x20 <=1 
C95: x2+x22-y2_22 <=1 
C96: x2+x23-y2_23 <=1 
C97: x2+x24 <=1 
C98: x2+x26 <=1 
C99: x2+x27-y2_27 <=1 
C100: x2+x28 <=1 
C101: x2+x29 <=1 
C102: x2+x30 <=1 
C103: x2+x31 <=1 
C104: x2+x32 <=1 
C105: x2+x37-y2_37 <=1 
C106: x2+x43-y2_43 <=1 
C107: x2+x44 <=1 
C108: x2+x46 <=1 
C109: x2+x47-y2_47 <=1 
C110: x2+x48-y2_48 <=1 
C111: x2+x50-y2_50 <=1 
C112: x2+x51 <=1 
C113: x2+x52 <=1 
C114: x2+x54 <=1 
C115: x2+x56-y2_56 <=1 
C116: x2+x57-y2_57 <=1 
C117: x2+x60-y2_60 <=1 
C118: x2+x62 <=1 
C119: x2+x63 <=1 
C120: x2+x64-y2_64 <=1 
C121: x2+x65 <=1 
C122: x2+x66-y2_66 <=1 
C123: x3+x4 <=1 
C124: x3+x6-y3_6 <=1 
C125: x3+x7 <=1 
C126: x3+x8 <=1 
C127: x3+x9 <=1 
C128: x3+x10-y3_10 <=1 
C129: x3+x11-y3_11 <=1 
C130: x3+x12-y3_12 <=1 
C131: x3+x13 <=1 
C132: x3+x14-y3_14 <=1 
C133: x3+x15 <=1 
C134: x3+x16-y3_16 <=1 
C135: x3+x17-y3_17 <=1 
C136: x3+x20 <=1 
C137: x3+x22-y3_22 <=1 
C138: x3+x23 <=1 
C139: x3+x25 <=1 
C140: x3+x26-y3_26 <=1 
C141: x3+x27 <=1 
C142: x3+x30 <=1 
C143: x3+x31 <=1 
C144: x3+x32-y3_32 <=1 
C145: x3+x33-y3_33 <=1 
C146: x3+x34-y3_34 <=1 
C147: x3+x35 <=1 
C148: x3+x36-y3_36 <=1 
C149: x3+x41-y3_41 <=1 
C150: x3+x43 <=1 
C151: x3+x44-y3_44 <=1 
C152: x3+x49 <=1 
C153: x3+x51-y3_51 <=1 
C154: x3+x53-y3_53 <=1 
C155: x3+x54 <=1 
C156: x3+x55 <=1 
C157: x3+x56-y3_56 <=1 
C158: x3+x58-y3_58 <=1 
C159: x3+x62-y3_62 <=1 
C160: x3+x64-y3_64 <=1 
C161: x4+x5 <=1 
C162: x4+x6 <=1 
C163: x4+x7 <=1 
C164: x4+x10-y4_10 <=1 
C165: x4+x12 <=1 
C166: x4+x13-y4_13 <=1 
C167: x4+x14 <=1 
C168: x4+x15 <=1 
C169: x4+x17-y4_17 <=1 
C170: x4+x19-y4_19 <=1 
C171: x4+x20 <=1 
C172: x4+x21 <=1 
C173: x4+x23-y4_23 <=1 
C174: x4+x24-y4_24 <=1 
C175: x4+x25 <=1 
C176: x4+x26 <=1 
C177: x4+x27-y4_27 <=1 
C178: x4+x28-y4_28 <=1 
C179: x4+x29-y4_29 <=1 
C180: x4+x30-y4_30 <=1 
C181: x4+x33-y4_33 <=1 
C182: x4+x34 <=1 
C183: x4+x35 <=1 
C184: x4+x36 <=1 
C185: x4+x37 <=1 
C186: x4+x38-y4_38 <=1 
C187: x4+x41 <=1 
C188: x4+x42 <=1 
C189: x4+x43 <=1 
C190: x4+x44 <=1 
C191: x4+x46 <=1 
C192: x4+x49 <=1 
C193: x4+x50-y4_50 <=1 
C194: x4+x54 <=1 
C195: x4+x56 <=1 
C196: x4+x57 <=1 
C197: x4+x58 <=1 
C198: x4+x60 <=1 
C199: x4+x61-y4_61 <=1 
C200: x4+x62 <=1 
C201: x4+x63 <=1 
C202: x4+x64 <=1 
C203: x4+x65-y4_65 <=1 
C204: x4+x66 <=1 
C205: x5+x6 <=1 
C206: x5+x7-y5_7 <=1 
C207: x5+x8 <=1 
C208: x5+x13 <=1 
C209: x5+x14 <=1 
C210: x5+x16-y5_16 <=1 
C211: x5+x17 <=1 
C212: x5+x19-y5_19 <=1 
C213: x5+x20 <=1 
C214: x5+x23 <=1 
C215: x5+x26-y5_26 <=1 
C216: x5+x27 <=1 
C217: x5+x28 <=1 
C218: x5+x29 <=1 
C219: x5+x30-y5_30 <=1 
C220: x5+x31 <=1 
C221: x5+x34-y5_34 <=1 
C222: x5+x37 <=1 
C223: x5+x38-y5_38 <=1 
C224: x5+x39-y5_39 <=1 
C225: x5+x40-y5_40 <=1 
C226: x5+x41 <=1 
C227: x5+x42 <=1 
C228: x5+x44-y5_44 <=1 
C229: x5+x47 <=1 
C230: x5+x48-y5_48 <=1 
C231: x5+x49-y5_49 <=1 
C232: x5+x51-y5_51 <=1 
C233: x5+x52 <=1 
C234: x5+x53-y5_53 <=1 
C235: x5+x55 <=1 
C236: x5+x57-y5_57 <=1 
C237: x5+x58-y5_58 <=1 
C238: x5+x59-y5_59 <=1 
C239: x5+x61 <=1 
C240: x5+x62-y5_62 <=1 
C241: x5+x63-y5_63 <=1 
C242: x6+x7 <=1 
C243: x6+x8 <=1 
C244: x6+x9-y6_9 <=1 
C245: x6+x10-y6_10 <=1 
C246: x6+x11 <=1 
C247: x6+x12-y6_12 <=1 
C248: x6+x14 <=1 
C249: x6+x15-y6_15 <=1 
C250: x6+x16-y6_16 <=1 
C251: x6+x20 <=1 
C252: x6+x21 <=1 
C253: x6+x22 <=1 
C254: x6+x24-y6_24 <=1 
C255: x6+x25-y6_25 <=1 
C256: x6+x26 <=1 
C257: x6+x28-y6_28 <=1 
C258: x6+x29-y6_29 <=1 
C259: x6+x31 <=1 
C260: x6+x32-y6_32 <=1 
C261: x6+x35 <=1 
C262: x6+x37 <=1 
C263: x6+x40 <=1 
C264: x6+x41 <=1 
C265: x6+x42-y6_42 <=1 
C266: x6+x44 <=1 
C267: x6+x45-y6_45 <=1 
C268: x6+x46-y6_46 <=1 
C269: x6+x47-y6_47 <=1 
C270: x6+x48 <=1 
C271: x6+x49 <=1 
C272: x6+x51-y6_51 <=1 
C273: x6+x52 <=1 
C274: x6+x53-y6_53 <=1 
C275: x6+x54 <=1 
C276: x6+x55 <=1 
C277: x6+x57 <=1 
C278: x6+x59 <=1 
C279: x6+x60-y6_60 <=1 
C280: x6+x61 <=1 
C281: x6+x62-y6_62 <=1 
C282: x6+x65 <=1 
C283: x6+x66 <=1 
C284: x7+x9-y7_9 <=1 
C285: x7+x10-y7_10 <=1 
C286: x7+x11-y7_11 <=1 
C287: x7+x12-y7_12 <=1 
C288: x7+x16-y7_16 <=1 
C289: x7+x18-y7_18 <=1 
C290: x7+x19 <=1 
C291: x7+x20 <=1 
C292: x7+x23-y7_23 <=1 
C293: x7+x27-y7_27 <=1 
C294: x7+x28 <=1 
C295: x7+x30 <=1 
C296: x7+x32 <=1 
C297: x7+x33-y7_33 <=1 
C298: x7+x35-y7_35 <=1 
C299: x7+x38 <=1 
C300: x7+x40-y7_40 <=1 
C301: x7+x43-y7_43 <=1 
C302: x7+x44 <=1 
C303: x7+x45-y7_45 <=1 
C304: x7+x47 <=1 
C305: x7+x48 <=1 
C306: x7+x53 <=1 
C307: x7+x55-y7_55 <=1 
C308: x7+x56-y7_56 <=1 
C309: x7+x57 <=1 
C310: x7+x58-y7_58 <=1 
C311: x7+x59-y7_59 <=1 
C312: x7+x65 <=1 
C313: x8+x10 <=1 
C314: x8+x11-y8_11 <=1 
C315: x8+x12-y8_12 <=1 
C316: x8+x15 <=1 
C317: x8+x16 <=1 
C318: x8+x18 <=1 
C319: x8+x19-y8_19 <=1 
C320: x8+x21-y8_21 <=1 
C321: x8+x23 <=1 
C322: x8+x26-y8_26 <=1 
C323: x8+x27 <=1 
C324: x8+x28-y8_28 <=1 
C325: x8+x29-y8_29 <=1 
C326: x8+x30-y8_30 <=1 
C327: x8+x31-y8_31 <=1 
C328: x8+x32-y8_32 <=1 
C329: x8+x33 <=1 
C330: x8+x37 <=1 
C331: x8+x38-y8_38 <=1 
C332: x8+x39 <=1 
C333: x8+x44 <=1 
C334: x8+x45 <=1 
C335: x8+x47-y8_47 <=1 
C336: x8+x49-y8_49 <=1 
C337: x8+x50 <=1 
C338: x8+x51 <=1 
C339: x8+x52 <=1 
C340: x8+x53-y8_53 <=1 
C341: x8+x54 <=1 
C342: x8+x57 <=1 
C343: x8+x58 <=1 
C344: x8+x60-y8_60 <=1 
C345: x8+x61-y8_61 <=1 
C346: x8+x63 <=1 
C347: x8+x65 <=1 
C348: x9+x13-y9_13 <=1 
C349: x9+x14 <=1 
C350: x9+x15 <=1 
C351: x9+x16-y9_16 <=1 
C352: x9+x17 <=1 
C353: x9+x19-y9_19 <=1 
C354: x9+x20-y9_20 <=1 
C355: x9+x22-y9_22 <=1 
C356: x9+x23 <=1 
C357: x9+x25 <=1 
C358: x9+x26-y9_26 <=1 
C359: x9+x29-y9_29 <=1 
C360: x9+x30-y9_30 <=1 
C361: x9+x32 <=1 
C362: x9+x34-y9_34 <=1 
C363: x9+x36-y9_36 <=1 
C364: x9+x37-y9_37 <=1 
C365: x9+x39-y9_39 <=1 
C366: x9+x41-y9_41 <=1 
C367: x9+x42-y9_42 <=1 
C368: x9+x43-y9_43 <=1 
C369: x9+x45 <=1 
C370: x9+x46 <=1 
C371: x9+x47-y9_47 <=1 
C372: x9+x48 <=1 
C373: x9+x49 <=1 
C374: x9+x50-y9_50 <=1 
C375: x9+x51 <=1 
C376: x9+x52 <=1 
C377: x9+x53-y9_53 <=1 
C378: x9+x57-y9_57 <=1 
C379: x9+x60 <=1 
C380: x9+x61 <=1 
C381: x9+x62-y9_62 <=1 
C382: x9+x64-y9_64 <=1 
C383: x9+x65 <=1 
C384: x9+x66-y9_66 <=1 
C385: x10+x14 <=1 
C386: x10+x15-y10_15 <=1 
C387: x10+x16 <=1 
C388: x10+x17-y10_17 <=1 
C389: x10+x18 <=1 
C390: x10+x21 <=1 
C391: x10+x22-y10_22 <=1 
C392: x10+x25-y10_25 <=1 
C393: x10+x26-y10_26 <=1 
C394: x10+x27-y10_27 <=1 
C395: x10+x29 <=1 
C396: x10+x31-y10_31 <=1 
C397: x10+x32 <=1 
C398: x10+x33-y10_33 <=1 
C399: x10+x34 <=1 
C400: x10+x35-y10_35 <=1 
C401: x10+x36-y10_36 <=1 
C402: x10+x38-y10_38 <=1 
C403: x10+x39 <=1 
C404: x10+x41-y10_41 <=1 
C405: x10+x42 <=1 
C406: x10+x43 <=1 
C407: x10+x46 <=1 
C408: x10+x47-y10_47 <=1 
C409: x10+x49-y10_49 <=1 
C410: x10+x53-y10_53 <=1 
C411: x10+x55-y10_55 <=1 
C412: x10+x57 <=1 
C413: x10+x58 <=1 
C414: x10+x59 <=1 
C415: x10+x60-y10_60 <=1 
C416: x10+x61 <=1 
C417: x10+x62-y10_62 <=1 
C418: x10+x63 <=1 
C419: x10+x64 <=1 
C420: x11+x12-y11_12 <=1 
C421: x11+x13-y11_13 <=1 
C422: x11+x15 <=1 
C423: x11+x16-y11_16 <=1 
C424: x11+x20-y11_20 <=1 
C425: x11+x22 <=1 
C426: x11+x25-y11_25 <=1 
C427: x11+x27-y11_27 <=1 
C428: x11+x28 <=1 
C429: x11+x29 <=1 
C430: x11+x30 <=1 
C431: x11+x33 <=1 
C432: x11+x35-y11_35 <=1 
C433: x11+x36-y11_36 <=1 
C434: x11+x38 <=1 
C435: x11+x39-y11_39 <=1 
C436: x11+x40-y11_40 <=1 
C437: x11+x42 <=1 
C438: x11+x43-y11_43 <=1 
C439: x11+x45 <=1 
C440: x11+x46-y11_46 <=1 
C441: x11+x47-y11_47 <=1 
C442: x11+x49 <=1 
C443: x11+x51-y11_51 <=1 
C444: x11+x52 <=1 
C445: x11+x54 <=1 
C446: x11+x55 <=1 
C447: x11+x56 <=1 
C448: x11+x57 <=1 
C449: x11+x58-y11_58 <=1 
C450: x11+x60-y11_60 <=1 
C451: x11+x61-y11_61 <=1 
C452: x11+x62-y11_62 <=1 
C453: x11+x63 <=1 
C454: x11+x64-y11_64 <=1 
C455: x11+x65-y11_65 <=1 
C456: x11+x66 <=1 
C457: x12+x13-y12_13 <=1 
C458: x12+x14 <=1 
C459: x12+x17-y12_17 <=1 
C460: x12+x19-y12_19 <=1 
C461: x12+x20 <=1 
C462: x12+x21 <=1 
C463: x12+x23-y12_23 <=1 
C464: x12+x24-y12_24 <=1 
C465: x12+x25-y12_25 <=1 
C466: x12+x26 <=1 
C467: x12+x28 <=1 
C468: x12+x29-y12_29 <=1 
C469: x12+x30-y12_30 <=1 
C470: x12+x31-y12_31 <=1 
C471: x12+x32-y12_32 <=1 
C472: x12+x34-y12_34 <=1 
C473: x12+x35-y12_35 <=1 
C474: x12+x38 <=1 
C475: x12+x40 <=1 
C476: x12+x41 <=1 
C477: x12+x42 <=1 
C478: x12+x44 <=1 
C479: x12+x48 <=1 
C480: x12+x49 <=1 
C481: x12+x50-y12_50 <=1 
C482: x12+x51-y12_51 <=1 
C483: x12+x53-y12_53 <=1 
C484: x12+x55-y12_55 <=1 
C485: x12+x58 <=1 
C486: x12+x60-y12_60 <=1 
C487: x12+x61 <=1 
C488: x12+x62 <=1 
C489: x12+x64-y12_64 <=1 
C490: x12+x65-y12_65 <=1 
C491: x12+x66 <=1 
C492: x13+x14 <=1 
C493: x13+x16-y13_16 <=1 
C494: x13+x17-y13_17 <=1 
C495: x13+x18 <=1 
C496: x13+x19-y13_19 <=1 
C497: x13+x21 <=1 
C498: x13+x22-y13_22 <=1 
C499: x13+x23-y13_23 <=1 
C500: x13+x24 <=1 
C501: x13+x25-y13_25 <=1 
C502: x13+x27-y13_27 <=1 
C503: x13+x28 <=1 
C504: x13+x30 <=1 
C505: x13+x32 <=1 
C506: x13+x34 <=1 
C507: x13+x36-y13_36 <=1 
C508: x13+x38 <=1 
C509: x13+x40 <=1 
C510: x13+x42-y13_42 <=1 
C511: x13+x43-y13_43 <=1 
C512: x13+x44-y13_44 <=1 
C513: x13+x45-y13_45 <=1 
C514: x13+x46-y13_46 <=1 
C515: x13+x47 <=1 
C516: x13+x48 <=1 
C517: x13+x50 <=1 
C518: x13+x53 <=1 
C519: x13+x57 <=1 
C520: x13+x58-y13_58 <=1 
C521: x13+x61-y13_61 <=1 
C522: x13+x64 <=1 
C523: x13+x66 <=1 
C524: x14+x15 <=1 
C525: x14+x16-y14_16 <=1 
C526: x14+x17-y14_17 <=1 
C527: x14+x18 <=1 
C528: x14+x19 <=1 
C529: x14+x20-y14_20 <=1 
C530: x14+x21-y14_21 <=1 
C531: x14+x22 <=1 
C532: x14+x23-y14_23 <=1 
C533: x14+x25 <=1 
C534: x14+x26-y14_26 <=1 
C535: x14+x27-y14_27 <=1 
C536: x14+x29-y14_29 <=1 
C537: x14+x30 <=1 
C538: x14+x31 <=1 
C539: x14+x33-y14_33 <=1 
C540: x14+x34-y14_34 <=1 
C541: x14+x35-y14_35 <=1 
C542: x14+x36 <=1 
C543: x14+x37 <=1 
C544: x14+x38 <=1 
C545: x14+x40-y14_40 <=1 
C546: x14+x47 <=1 
C547: x14+x48-y14_48 <=1 
C548: x14+x50 <=1 
C549: x14+x51 <=1 
C550: x14+x52 <=1 
C551: x14+x53-y14_53 <=1 
C552: x14+x56-y14_56 <=1 
C553: x14+x57-y14_57 <=1 
C554: x14+x58 <=1 
C555: x14+x60 <=1 
C556: x14+x63 <=1 
C557: x14+x64 <=1 
C558: x14+x65-y14_65 <=1 
C559: x14+x66 <=1 
C560: x15+x16-y15_16 <=1 
C561: x15+x18-y15_18 <=1 
C562: x15+x20 <=1 
C563: x15+x22-y15_22 <=1 
C564: x15+x23-y15_23 <=1 
C565: x15+x24-y15_24 <=1 
C566: x15+x27-y15_27 <=1 
C567: x15+x30-y15_30 <=1 
C568: x15+x31 <=1 
C569: x15+x34 <=1 
C570: x15+x36-y15_36 <=1 
C571: x15+x38 <=1 
C572: x15+x39 <=1 
C573: x15+x40 <=1 
C574: x15+x41-y15_41 <=1 
C575: x15+x42 <=1 
C576: x15+x46-y15_46 <=1 
C577: x15+x48 <=1 
C578: x15+x49-y15_49 <=1 
C579: x15+x52 <=1 
C580: x15+x53-y15_53 <=1 
C581: x15+x54-y15_54 <=1 
C582: x15+x55-y15_55 <=1 
C583: x15+x56 <=1 
C584: x15+x57-y15_57 <=1 
C585: x15+x58 <=1 
C586: x15+x59 <=1 
C587: x15+x60 <=1 
C588: x15+x62-y15_62 <=1 
C589: x15+x63-y15_63 <=1 
C590: x15+x64 <=1 
C591: x15+x66 <=1 
C592: x16+x19 <=1 
C593: x16+x22-y16_22 <=1 
C594: x16+x23 <=1 
C595: x16+x24 <=1 
C596: x16+x25 <=1 
C597: x16+x27-y16_27 <=1 
C598: x16+x28-y16_28 <=1 
C599: x16+x31-y16_31 <=1 
C600: x16+x32-y16_32 <=1 
C601: x16+x33 <=1 
C602: x16+x37 <=1 
C603: x16+x38-y16_38 <=1 
C604: x16+x39-y16_39 <=1 
C605: x16+x40 <=1 
C606: x16+x41 <=1 
C607: x16+x43 <=1 
C608: x16+x46-y16_46 <=1 
C609: x16+x47 <=1 
C610: x16+x48-y16_48 <=1 
C611: x16+x49 <=1 
C612: x16+x50 <=1 
C613: x16+x51-y16_51 <=1 
C614: x16+x53-y16_53 <=1 
C615: x16+x54 <=1 
C616: x16+x56-y16_56 <=1 
C617: x16+x57 <=1 
C618: x16+x59 <=1 
C619: x16+x61-y16_61 <=1 
C620: x16+x62 <=1 
C621: x16+x63 <=1 
C622: x16+x66 <=1 
C623: x17+x20-y17_20 <=1 
C624: x17+x21 <=1 
C625: x17+x25-y17_25 <=1 
C626: x17+x27-y17_27 <=1 
C627: x17+x28 <=1 
C628: x17+x29 <=1 
C629: x17+x30-y17_30 <=1 
C630: x17+x32-y17_32 <=1 
C631: x17+x33-y17_33 <=1 
C632: x17+x35-y17_35 <=1 
C633: x17+x36-y17_36 <=1 
C634: x17+x38 <=1 
C635: x17+x39-y17_39 <=1 
C636: x17+x42-y17_42 <=1 
C637: x17+x44-y17_44 <=1 
C638: x17+x46-y17_46 <=1 
C639: x17+x48-y17_48 <=1 
C640: x17+x50 <=1 
C641: x17+x53-y17_53 <=1 
C642: x17+x54 <=1 
C643: x17+x55-y17_55 <=1 
C644: x17+x59 <=1 
C645: x17+x62 <=1 
C646: x17+x64 <=1 
C647: x17+x66-y17_66 <=1 
C648: x18+x19 <=1 
C649: x18+x20 <=1 
C650: x18+x21 <=1 
C651: x18+x22 <=1 
C652: x18+x23 <=1 
C653: x18+x24-y18_24 <=1 
C654: x18+x25-y18_25 <=1 
C655: x18+x26 <=1 
C656: x18+x27 <=1 
C657: x18+x28-y18_28 <=1 
C658: x18+x29-y18_29 <=1 
C659: x18+x30-y18_30 <=1 
C660: x18+x31 <=1 
C661: x18+x32 <=1 
C662: x18+x33-y18_33 <=1 
C663: x18+x35 <=1 
C664: x18+x37-y18_37 <=1 
C665: x18+x39 <=1 
C666: x18+x40 <=1 
C667: x18+x41 <=1 
C668: x18+x43-y18_43 <=1 
C669: x18+x44-y18_44 <=1 
C670: x18+x46-y18_46 <=1 
C671: x18+x48-y18_48 <=1 
C672: x18+x52-y18_52 <=1 
C673: x18+x54-y18_54 <=1 
C674: x18+x60 <=1 
C675: x18+x61-y18_61 <=1 
C676: x18+x63 <=1 
C677: x18+x66-y18_66 <=1 
C678: x19+x21-y19_21 <=1 
C679: x19+x22-y19_22 <=1 
C680: x19+x23 <=1 
C681: x19+x25-y19_25 <=1 
C682: x19+x27-y19_27 <=1 
C683: x19+x29-y19_29 <=1 
C684: x19+x31-y19_31 <=1 
C685: x19+x32-y19_32 <=1 
C686: x19+x34-y19_34 <=1 
C687: x19+x35-y19_35 <=1 
C688: x19+x37 <=1 
C689: x19+x38 <=1 
C690: x19+x40-y19_40 <=1 
C691: x19+x41 <=1 
C692: x19+x42 <=1 
C693: x19+x43 <=1 
C694: x19+x45-y19_45 <=1 
C695: x19+x46-y19_46 <=1 
C696: x19+x47-y19_47 <=1 
C697: x19+x48-y19_48 <=1 
C698: x19+x51 <=1 
C699: x19+x52-y19_52 <=1 
C700: x19+x53-y19_53 <=1 
C701: x19+x54-y19_54 <=1 
C702: x19+x55 <=1 
C703: x19+x56 <=1 
C704: x19+x58 <=1 
C705: x19+x59-y19_59 <=1 
C706: x19+x60-y19_60 <=1 
C707: x19+x61-y19_61 <=1 
C708: x19+x63 <=1 
C709: x19+x64 <=1 
C710: x19+x66-y19_66 <=1 
C711: x20+x21 <=1 
C712: x20+x23-y20_23 <=1 
C713: x20+x24 <=1 
C714: x20+x25 <=1 
C715: x20+x27 <=1 
C716: x20+x28 <=1 
C717: x20+x32-y20_32 <=1 
C718: x20+x33-y20_33 <=1 
C719: x20+x34 <=1 
C720: x20+x35-y20_35 <=1 
C721: x20+x36-y20_36 <=1 
C722: x20+x37 <=1 
C723: x20+x38-y20_38 <=1 
C724: x20+x39-y20_39 <=1 
C725: x20+x43 <=1 
C726: x20+x44 <=1 
C727: x20+x45-y20_45 <=1 
C728: x20+x46 <=1 
C729: x20+x47 <=1 
C730: x20+x49-y20_49 <=1 
C731: x20+x50 <=1 
C732: x20+x53-y20_53 <=1 
C733: x20+x54 <=1 
C734: x20+x56 <=1 
C735: x20+x57-y20_57 <=1 
C736: x20+x58 <=1 
C737: x20+x59 <=1 
C738: x20+x60-y20_60 <=1 
C739: x20+x62 <=1 
C740: x20+x64-y20_64 <=1 
C741: x20+x65-y20_65 <=1 
C742: x20+x66-y20_66 <=1 
C743: x21+x22-y21_22 <=1 
C744: x21+x24-y21_24 <=1 
C745: x21+x25 <=1 
C746: x21+x26 <=1 
C747: x21+x27-y21_27 <=1 
C748: x21+x31 <=1 
C749: x21+x32 <=1 
C750: x21+x34-y21_34 <=1 
C751: x21+x35 <=1 
C752: x21+x36-y21_36 <=1 
C753: x21+x37 <=1 
C754: x21+x39-y21_39 <=1 
C755: x21+x40-y21_40 <=1 
C756: x21+x41-y21_41 <=1 
C757: x21+x44 <=1 
C758: x21+x45-y21_45 <=1 
C759: x21+x48 <=1 
C760: x21+x49 <=1 
C761: x21+x50 <=1 
C762: x21+x51-y21_51 <=1 
C763: x21+x53 <=1 
C764: x21+x56 <=1 
C765: x21+x58-y21_58 <=1 
C766: x21+x59 <=1 
C767: x21+x60 <=1 
C768: x21+x62-y21_62 <=1 
C769: x21+x63 <=1 
C770: x21+x64 <=1 
C771: x21+x65 <=1 
C772: x21+x66 <=1 
C773: x22+x27 <=1 
C774: x22+x28 <=1 
C775: x22+x29 <=1 
C776: x22+x30 <=1 
C777: x22+x32-y22_32 <=1 
C778: x22+x33 <=1 
C779: x22+x35-y22_35 <=1 
C780: x22+x36-y22_36 <=1 
C781: x22+x38-y22_38 <=1 
C782: x22+x41 <=1 
C783: x22+x42-y22_42 <=1 
C784: x22+x43-y22_43 <=1 
C785: x22+x44-y22_44 <=1 
C786: x22+x45 <=1 
C787: x22+x46 <=1 
C788: x22+x49 <=1 
C789: x22+x51 <=1 
C790: x22+x52-y22_52 <=1 
C791: x22+x54 <=1 
C792: x22+x56-y22_56 <=1 
C793: x22+x57 <=1 
C794: x22+x58 <=1 
C795: x22+x59-y22_59 <=1 
C796: x22+x60 <=1 
C797: x22+x61 <=1 
C798: x22+x62 <=1 
C799: x22+x65 <=1 
C800: x22+x66 <=1 
C801: x23+x26-y23_26 <=1 
C802: x23+x28 <=1 
C803: x23+x29-y23_29 <=1 
C804: x23+x31-y23_31 <=1 
C805: x23+x35 <=1 
C806: x23+x36 <=1 
C807: x23+x37 <=1 
C808: x23+x41-y23_41 <=1 
C809: x23+x43-y23_43 <=1 
C810: x23+x44 <=1 
C811: x23+x47-y23_47 <=1 
C812: x23+x48-y23_48 <=1 
C813: x23+x49 <=1 
C814: x23+x50 <=1 
C815: x23+x52 <=1 
C816: x23+x55 <=1 
C817: x23+x56 <=1 
C818: x23+x58 <=1 
C819: x23+x59 <=1 
C820: x23+x61 <=1 
C821: x23+x62 <=1 
C822: x23+x64-y23_64 <=1 
C823: x23+x66 <=1 
C824: x24+x26-y24_26 <=1 
C825: x24+x29-y24_29 <=1 
C826: x24+x30 <=1 
C827: x24+x31 <=1 
C828: x24+x34 <=1 
C829: x24+x36-y24_36 <=1 
C830: x24+x38 <=1 
C831: x24+x40 <=1 
C832: x24+x41-y24_41 <=1 
C833: x24+x42 <=1 
C834: x24+x43 <=1 
C835: x24+x44 <=1 
C836: x24+x47 <=1 
C837: x24+x48-y24_48 <=1 
C838: x24+x49 <=1 
C839: x24+x50-y24_50 <=1 
C840: x24+x51 <=1 
C841: x24+x52 <=1 
C842: x24+x53-y24_53 <=1 
C843: x24+x54-y24_54 <=1 
C844: x24+x55 <=1 
C845: x24+x56-y24_56 <=1 
C846: x24+x59 <=1 
C847: x24+x62-y24_62 <=1 
C848: x24+x63-y24_63 <=1 
C849: x24+x65-y24_65 <=1 
C850: x24+x66-y24_66 <=1 
C851: x25+x27 <=1 
C852: x25+x28 <=1 
C853: x25+x30-y25_30 <=1 
C854: x25+x33-y25_33 <=1 
C855: x25+x34 <=1 
C856: x25+x36-y25_36 <=1 
C857: x25+x38 <=1 
C858: x25+x41 <=1 
C859: x25+x42-y25_42 <=1 
C860: x25+x43-y25_43 <=1 
C861: x25+x44 <=1 
C862: x25+x45-y25_45 <=1 
C863: x25+x46 <=1 
C864: x25+x47 <=1 
C865: x25+x48-y25_48 <=1 
C866: x25+x51 <=1 
C867: x25+x52-y25_52 <=1 
C868: x25+x53 <=1 
C869: x25+x55 <=1 
C870: x25+x56 <=1 
C871: x25+x57-y25_57 <=1 
C872: x25+x60-y25_60 <=1 
C873: x25+x66 <=1 
C874: x26+x27 <=1 
C875: x26+x28-y26_28 <=1 
C876: x26+x29-y26_29 <=1 
C877: x26+x32 <=1 
C878: x26+x34 <=1 
C879: x26+x36-y26_36 <=1 
C880: x26+x37 <=1 
C881: x26+x38-y26_38 <=1 
C882: x26+x39-y26_39 <=1 
C883: x26+x41 <=1 
C884: x26+x43 <=1 
C885: x26+x45 <=1 
C886: x26+x50-y26_50 <=1 
C887: x26+x51 <=1 
C888: x26+x53-y26_53 <=1 
C889: x26+x54-y26_54 <=1 
C890: x26+x56 <=1 
C891: x26+x57 <=1 
C892: x26+x59 <=1 
C893: x26+x60 <=1 
C894: x26+x61 <=1 
C895: x26+x62 <=1 
C896: x26+x63-y26_63 <=1 
C897: x26+x66-y26_66 <=1 
C898: x27+x28-y27_28 <=1 
C899: x27+x30 <=1 
C900: x27+x32-y27_32 <=1 
C901: x27+x33-y27_33 <=1 
C902: x27+x34 <=1 
C903: x27+x36-y27_36 <=1 
C904: x27+x38 <=1 
C905: x27+x40-y27_40 <=1 
C906: x27+x41-y27_41 <=1 
C907: x27+x42 <=1 
C908: x27+x43-y27_43 <=1 
C909: x27+x47 <=1 
C910: x27+x48-y27_48 <=1 
C911: x27+x51-y27_51 <=1 
C912: x27+x52 <=1 
C913: x27+x53-y27_53 <=1 
C914: x27+x54 <=1 
C915: x27+x55-y27_55 <=1 
C916: x27+x56 <=1 
C917: x27+x59 <=1 
C918: x27+x62 <=1 
C919: x27+x63 <=1 
C920: x27+x64 <=1 
C921: x27+x65 <=1 
C922: x27+x66 <=1 
C923: x28+x30 <=1 
C924: x28+x31 <=1 
C925: x28+x32-y28_32 <=1 
C926: x28+x34-y28_34 <=1 
C927: x28+x36 <=1 
C928: x28+x37-y28_37 <=1 
C929: x28+x38-y28_38 <=1 
C930: x28+x39 <=1 
C931: x28+x40 <=1 
C932: x28+x42-y28_42 <=1 
C933: x28+x46 <=1 
C934: x28+x47-y28_47 <=1 
C935: x28+x49-y28_49 <=1 
C936: x28+x50-y28_50 <=1 
C937: x28+x52-y28_52 <=1 
C938: x28+x53 <=1 
C939: x28+x54 <=1 
C940: x28+x55 <=1 
C941: x28+x57 <=1 
C942: x28+x59-y28_59 <=1 
C943: x28+x61-y28_61 <=1 
C944: x28+x62 <=1 
C945: x28+x63 <=1 
C946: x28+x65-y28_65 <=1 
C947: x28+x66-y28_66 <=1 
C948: x29+x32-y29_32 <=1 
C949: x29+x35-y29_35 <=1 
C950: x29+x39-y29_39 <=1 
C951: x29+x40-y29_40 <=1 
C952: x29+x41-y29_41 <=1 
C953: x29+x42 <=1 
C954: x29+x43-y29_43 <=1 
C955: x29+x45-y29_45 <=1 
C956: x29+x47 <=1 
C957: x29+x48-y29_48 <=1 
C958: x29+x50 <=1 
C959: x29+x52-y29_52 <=1 
C960: x29+x53-y29_53 <=1 
C961: x29+x56-y29_56 <=1 
C962: x29+x57 <=1 
C963: x29+x61 <=1 
C964: x29+x62 <=1 
C965: x29+x63-y29_63 <=1 
C966: x29+x64 <=1 
C967: x30+x34 <=1 
C968: x30+x36-y30_36 <=1 
C969: x30+x37 <=1 
C970: x30+x38 <=1 
C971: x30+x39-y30_39 <=1 
C972: x30+x42 <=1 
C973: x30+x44-y30_44 <=1 
C974: x30+x46-y30_46 <=1 
C975: x30+x47 <=1 
C976: x30+x48-y30_48 <=1 
C977: x30+x50 <=1 
C978: x30+x53 <=1 
C979: x30+x54-y30_54 <=1 
C980: x30+x55 <=1 
C981: x30+x56 <=1 
C982: x30+x59 <=1 
C983: x30+x60 <=1 
C984: x30+x61 <=1 
C985: x30+x62-y30_62 <=1 
C986: x30+x66-y30_66 <=1 
C987: x31+x32-y31_32 <=1 
C988: x31+x33-y31_33 <=1 
C989: x31+x35-y31_35 <=1 
C990: x31+x36-y31_36 <=1 
C991: x31+x38-y31_38 <=1 
C992: x31+x41-y31_41 <=1 
C993: x31+x43 <=1 
C994: x31+x50 <=1 
C995: x31+x52 <=1 
C996: x31+x53 <=1 
C997: x31+x54-y31_54 <=1 
C998: x31+x55 <=1 
C999: x31+x56 <=1 
C1000: x31+x57 <=1 
C1001: x31+x60 <=1 
C1002: x31+x61 <=1 
C1003: x31+x62 <=1 
C1004: x31+x65-y31_65 <=1 
C1005: x31+x66 <=1 
C1006: x32+x33 <=1 
C1007: x32+x35 <=1 
C1008: x32+x36-y32_36 <=1 
C1009: x32+x37-y32_37 <=1 
C1010: x32+x39 <=1 
C1011: x32+x47 <=1 
C1012: x32+x48 <=1 
C1013: x32+x49-y32_49 <=1 
C1014: x32+x50 <=1 
C1015: x32+x51 <=1 
C1016: x32+x52 <=1 
C1017: x32+x53-y32_53 <=1 
C1018: x32+x55 <=1 
C1019: x32+x56 <=1 
C1020: x32+x57 <=1 
C1021: x32+x59 <=1 
C1022: x32+x60-y32_60 <=1 
C1023: x32+x61 <=1 
C1024: x32+x62-y32_62 <=1 
C1025: x32+x65-y32_65 <=1 
C1026: x33+x35 <=1 
C1027: x33+x40 <=1 
C1028: x33+x44 <=1 
C1029: x33+x46-y33_46 <=1 
C1030: x33+x47-y33_47 <=1 
C1031: x33+x48-y33_48 <=1 
C1032: x33+x52-y33_52 <=1 
C1033: x33+x53 <=1 
C1034: x33+x54-y33_54 <=1 
C1035: x33+x55-y33_55 <=1 
C1036: x33+x57 <=1 
C1037: x33+x63-y33_63 <=1 
C1038: x33+x64 <=1 
C1039: x33+x65 <=1 
C1040: x34+x35-y34_35 <=1 
C1041: x34+x37-y34_37 <=1 
C1042: x34+x38 <=1 
C1043: x34+x40 <=1 
C1044: x34+x44-y34_44 <=1 
C1045: x34+x46 <=1 
C1046: x34+x47-y34_47 <=1 
C1047: x34+x51-y34_51 <=1 
C1048: x34+x52 <=1 
C1049: x34+x53 <=1 
C1050: x34+x55-y34_55 <=1 
C1051: x34+x57 <=1 
C1052: x34+x59 <=1 
C1053: x34+x61 <=1 
C1054: x34+x63-y34_63 <=1 
C1055: x34+x64-y34_64 <=1 
C1056: x34+x65-y34_65 <=1 
C1057: x34+x66-y34_66 <=1 
C1058: x35+x36 <=1 
C1059: x35+x39-y35_39 <=1 
C1060: x35+x41-y35_41 <=1 
C1061: x35+x44-y35_44 <=1 
C1062: x35+x46 <=1 
C1063: x35+x47-y35_47 <=1 
C1064: x35+x48-y35_48 <=1 
C1065: x35+x50 <=1 
C1066: x35+x51-y35_51 <=1 
C1067: x35+x55 <=1 
C1068: x35+x57 <=1 
C1069: x35+x58-y35_58 <=1 
C1070: x35+x60-y35_60 <=1 
C1071: x35+x61 <=1 
C1072: x35+x63 <=1 
C1073: x35+x65 <=1 
C1074: x35+x66-y35_66 <=1 
C1075: x36+x38-y36_38 <=1 
C1076: x36+x39 <=1 
C1077: x36+x43-y36_43 <=1 
C1078: x36+x44-y36_44 <=1 
C1079: x36+x46 <=1 
C1080: x36+x47-y36_47 <=1 
C1081: x36+x49 <=1 
C1082: x36+x50 <=1 
C1083: x36+x52-y36_52 <=1 
C1084: x36+x55 <=1 
C1085: x36+x56 <=1 
C1086: x36+x58 <=1 
C1087: x36+x59-y36_59 <=1 
C1088: x36+x60-y36_60 <=1 
C1089: x36+x61 <=1 
C1090: x36+x66-y36_66 <=1 
C1091: x37+x38 <=1 
C1092: x37+x39 <=1 
C1093: x37+x40 <=1 
C1094: x37+x44-y37_44 <=1 
C1095: x37+x46-y37_46 <=1 
C1096: x37+x48 <=1 
C1097: x37+x49-y37_49 <=1 
C1098: x37+x51-y37_51 <=1 
C1099: x37+x53-y37_53 <=1 
C1100: x37+x54 <=1 
C1101: x37+x58-y37_58 <=1 
C1102: x37+x61 <=1 
C1103: x37+x66 <=1 
C1104: x38+x39 <=1 
C1105: x38+x42 <=1 
C1106: x38+x44-y38_44 <=1 
C1107: x38+x45 <=1 
C1108: x38+x49-y38_49 <=1 
C1109: x38+x50-y38_50 <=1 
C1110: x38+x51-y38_51 <=1 
C1111: x38+x52 <=1 
C1112: x38+x55-y38_55 <=1 
C1113: x38+x56 <=1 
C1114: x38+x57 <=1 
C1115: x38+x58-y38_58 <=1 
C1116: x38+x61-y38_61 <=1 
C1117: x38+x62 <=1 
C1118: x38+x63-y38_63 <=1 
C1119: x38+x64-y38_64 <=1 
C1120: x39+x40-y39_40 <=1 
C1121: x39+x41 <=1 
C1122: x39+x42-y39_42 <=1 
C1123: x39+x44-y39_44 <=1 
C1124: x39+x45 <=1 
C1125: x39+x48-y39_48 <=1 
C1126: x39+x49 <=1 
C1127: x39+x50 <=1 
C1128: x39+x52 <=1 
C1129: x39+x53-y39_53 <=1 
C1130: x39+x59 <=1 
C1131: x39+x60 <=1 
C1132: x39+x61 <=1 
C1133: x39+x64-y39_64 <=1 
C1134: x39+x65-y39_65 <=1 
C1135: x39+x66 <=1 
C1136: x40+x41 <=1 
C1137: x40+x43-y40_43 <=1 
C1138: x40+x44-y40_44 <=1 
C1139: x40+x46 <=1 
C1140: x40+x47 <=1 
C1141: x40+x48 <=1 
C1142: x40+x49-y40_49 <=1 
C1143: x40+x51 <=1 
C1144: x40+x56-y40_56 <=1 
C1145: x40+x58 <=1 
C1146: x40+x59-y40_59 <=1 
C1147: x40+x62-y40_62 <=1 
C1148: x40+x63 <=1 
C1149: x40+x64 <=1 
C1150: x40+x65-y40_65 <=1 
C1151: x41+x45 <=1 
C1152: x41+x46 <=1 
C1153: x41+x47 <=1 
C1154: x41+x48 <=1 
C1155: x41+x51 <=1 
C1156: x41+x52 <=1 
C1157: x41+x53 <=1 
C1158: x41+x54-y41_54 <=1 
C1159: x41+x55 <=1 
C1160: x41+x56-y41_56 <=1 
C1161: x41+x58-y41_58 <=1 
C1162: x41+x60 <=1 
C1163: x41+x63-y41_63 <=1 
C1164: x41+x64 <=1 
C1165: x41+x65-y41_65 <=1 
C1166: x42+x46 <=1 
C1167: x42+x48-y42_48 <=1 
C1168: x42+x51-y42_51 <=1 
C1169: x42+x53-y42_53 <=1 
C1170: x42+x54 <=1 
C1171: x42+x56 <=1 
C1172: x42+x57-y42_57 <=1 
C1173: x42+x58 <=1 
C1174: x42+x60-y42_60 <=1 
C1175: x42+x63 <=1 
C1176: x42+x64-y42_64 <=1 
C1177: x42+x66-y42_66 <=1 
C1178: x43+x44-y43_44 <=1 
C1179: x43+x45 <=1 
C1180: x43+x47 <=1 
C1181: x43+x51-y43_51 <=1 
C1182: x43+x52 <=1 
C1183: x43+x55-y43_55 <=1 
C1184: x43+x58-y43_58 <=1 
C1185: x43+x59-y43_59 <=1 
C1186: x43+x62-y43_62 <=1 
C1187: x44+x45 <=1 
C1188: x44+x48 <=1 
C1189: x44+x50 <=1 
C1190: x44+x51 <=1 
C1191: x44+x52 <=1 
C1192: x44+x54-y44_54 <=1 
C1193: x44+x58-y44_58 <=1 
C1194: x44+x62 <=1 
C1195: x44+x63-y44_63 <=1 
C1196: x44+x64-y44_64 <=1 
C1197: x44+x65 <=1 
C1198: x45+x46-y45_46 <=1 
C1199: x45+x47 <=1 
C1200: x45+x48-y45_48 <=1 
C1201: x45+x49-y45_49 <=1 
C1202: x45+x51-y45_51 <=1 
C1203: x45+x52 <=1 
C1204: x45+x53 <=1 
C1205: x45+x56-y45_56 <=1 
C1206: x45+x57 <=1 
C1207: x45+x58-y45_58 <=1 
C1208: x45+x60-y45_60 <=1 
C1209: x45+x62-y45_62 <=1 
C1210: x45+x63 <=1 
C1211: x45+x64 <=1 
C1212: x46+x47 <=1 
C1213: x46+x48-y46_48 <=1 
C1214: x46+x50 <=1 
C1215: x46+x52 <=1 
C1216: x46+x53 <=1 
C1217: x46+x54-y46_54 <=1 
C1218: x46+x56-y46_56 <=1 
C1219: x46+x57 <=1 
C1220: x46+x58-y46_58 <=1 
C1221: x46+x60-y46_60 <=1 
C1222: x46+x61 <=1 
C1223: x46+x63-y46_63 <=1 
C1224: x46+x65-y46_65 <=1 
C1225: x46+x66-y46_66 <=1 
C1226: x47+x50-y47_50 <=1 
C1227: x47+x51 <=1 
C1228: x47+x53 <=1 
C1229: x47+x54 <=1 
C1230: x47+x55 <=1 
C1231: x47+x57-y47_57 <=1 
C1232: x47+x60 <=1 
C1233: x47+x61 <=1 
C1234: x47+x62-y47_62 <=1 
C1235: x47+x64 <=1 
C1236: x47+x66-y47_66 <=1 
C1237: x48+x49-y48_49 <=1 
C1238: x48+x50 <=1 
C1239: x48+x51-y48_51 <=1 
C1240: x48+x52-y48_52 <=1 
C1241: x48+x53 <=1 
C1242: x48+x54 <=1 
C1243: x48+x55-y48_55 <=1 
C1244: x48+x57-y48_57 <=1 
C1245: x48+x59-y48_59 <=1 
C1246: x48+x63-y48_63 <=1 
C1247: x48+x64 <=1 
C1248: x48+x65 <=1 
C1249: x49+x50 <=1 
C1250: x49+x51-y49_51 <=1 
C1251: x49+x53-y49_53 <=1 
C1252: x49+x55 <=1 
C1253: x49+x57-y49_57 <=1 
C1254: x49+x59 <=1 
C1255: x49+x60-y49_60 <=1 
C1256: x49+x62 <=1 
C1257: x49+x65-y49_65 <=1 
C1258: x50+x52-y50_52 <=1 
C1259: x50+x54 <=1 
C1260: x50+x55-y50_55 <=1 
C1261: x50+x58 <=1 
C1262: x50+x60 <=1 
C1263: x50+x61-y50_61 <=1 
C1264: x50+x62 <=1 
C1265: x50+x63-y50_63 <=1 
C1266: x50+x65 <=1 
C1267: x51+x52 <=1 
C1268: x51+x53 <=1 
C1269: x51+x55 <=1 
C1270: x51+x57-y51_57 <=1 
C1271: x51+x58 <=1 
C1272: x51+x59-y51_59 <=1 
C1273: x51+x60 <=1 
C1274: x51+x61-y51_61 <=1 
C1275: x51+x62 <=1 
C1276: x51+x64-y51_64 <=1 
C1277: x51+x65 <=1 
C1278: x51+x66-y51_66 <=1 
C1279: x52+x58-y52_58 <=1 
C1280: x52+x60 <=1 
C1281: x52+x61 <=1 
C1282: x52+x62-y52_62 <=1 
C1283: x52+x63 <=1 
C1284: x53+x56 <=1 
C1285: x53+x57-y53_57 <=1 
C1286: x53+x58-y53_58 <=1 
C1287: x53+x61 <=1 
C1288: x53+x62 <=1 
C1289: x53+x63 <=1 
C1290: x54+x55-y54_55 <=1 
C1291: x54+x56-y54_56 <=1 
C1292: x54+x57 <=1 
C1293: x54+x58-y54_58 <=1 
C1294: x54+x60-y54_60 <=1 
C1295: x54+x61-y54_61 <=1 
C1296: x54+x63-y54_63 <=1 
C1297: x54+x64-y54_64 <=1 
C1298: x55+x56 <=1 
C1299: x55+x58 <=1 
C1300: x55+x59 <=1 
C1301: x55+x60 <=1 
C1302: x55+x62 <=1 
C1303: x55+x64-y55_64 <=1 
C1304: x55+x66-y55_66 <=1 
C1305: x56+x57-y56_57 <=1 
C1306: x56+x58-y56_58 <=1 
C1307: x56+x59-y56_59 <=1 
C1308: x56+x61-y56_61 <=1 
C1309: x56+x62-y56_62 <=1 
C1310: x56+x65 <=1 
C1311: x56+x66-y56_66 <=1 
C1312: x57+x58 <=1 
C1313: x57+x59 <=1 
C1314: x57+x60 <=1 
C1315: x57+x61-y57_61 <=1 
C1316: x57+x63-y57_63 <=1 
C1317: x57+x64-y57_64 <=1 
C1318: x57+x66 <=1 
C1319: x58+x60-y58_60 <=1 
C1320: x58+x61-y58_61 <=1 
C1321: x58+x64-y58_64 <=1 
C1322: x58+x65-y58_65 <=1 
C1323: x58+x66-y58_66 <=1 
C1324: x59+x62 <=1 
C1325: x59+x63-y59_63 <=1 
C1326: x59+x65 <=1 
C1327: x59+x66-y59_66 <=1 
C1328: x60+x61-y60_61 <=1 
C1329: x60+x62 <=1 
C1330: x60+x63-y60_63 <=1 
C1331: x60+x64-y60_64 <=1 
C1332: x60+x65 <=1 
C1333: x60+x66 <=1 
C1334: x61+x62 <=1 
C1335: x61+x65 <=1 
C1336: x61+x66 <=1 
C1337: x62+x64 <=1 
C1338: x63+x64 <=1 
C1339: x63+x65-y63_65 <=1 
C1340: x63+x66-y63_66 <=1 
C1341: x64+x65 <=1 
C1342: x65+x66 <=1 

binary
x0
x1
x2
x3
x4
x5
x6
x7
x8
x9
x10
x11
x12
x13
x14
x15
x16
x17
x18
x19
x20
x21
x22
x23
x24
x25
x26
x27
x28
x29
x30
x31
x32
x33
x34
x35
x36
x37
x38
x39
x40
x41
x42
x43
x44
x45
x46
x47
x48
x49
x50
x51
x52
x53
x54
x55
x56
x57
x58
x59
x60
x61
x62
x63
x64
x65
x66
